\* Problem: Unknown *\

Maximize
 obj: + xp_0_0 + xp_0_1 + xp_1_0 + xp_1_1 + xp_2_0 + xp_2_1 + xp_3_0
 + xp_3_1 + xp_3_2 + xp_4_0 + xp_4_1 + xp_5_0 + xp_5_1 + xp_6_0 + xp_7_0
 + xp_8_0 + xp_9_0 + xp_9_1 + xp_10_0 + xp_11_0 + xp_11_1 + xp_12_0
 + xp_12_1 + xp_13_0 + xp_13_1 + xp_13_2 + xp_14_0 + xp_14_1 + xp_15_0
 + xp_16_0 + xp_17_0 + xp_17_1 + xp_18_0 + xp_18_1 + xp_18_2 + xp_18_3
 + xp_19_0 + xp_19_1 + xp_20_0 + xp_21_0 + xp_22_0 + xp_22_1 + xp_23_0
 + xp_24_0 + xp_24_1 + xp_24_2 + xp_24_3 + xp_24_4 + xp_25_0 + xp_26_0
 + xp_26_1 + xp_26_2 + xp_26_3 + xp_26_4 + xp_27_0 + xp_27_1 + xp_28_0
 + xp_28_1 + xp_29_0 + xp_30_0 + xp_30_1 + xp_30_2 + xp_31_0 + xp_32_0
 + xp_32_1 + xp_32_2 + xp_33_0 + xp_34_0 + xp_34_1 + xp_35_0 + xp_36_0
 + xp_37_0 + xp_38_0 + xp_38_1 + xp_39_0 + xp_40_0 + xp_40_1 + xp_40_2
 + xp_41_0 + xp_41_1 + xp_42_0 + xp_42_1 + xp_42_2 + xp_43_0 + xp_44_0
 + xp_44_1 + xp_45_0 + xp_45_1 + xp_45_2 + xp_46_0 + xp_47_0 + xp_48_0
 + xp_48_1 + xp_48_2 + xp_49_0 + xp_50_0 + xp_50_1 + xp_51_0 + xp_52_0
 + xp_53_0 + xp_53_1 + xp_54_0 + xp_55_0 + xp_56_0 + xp_57_0 + xp_57_1
 + xp_58_0 + xp_58_1 + xp_59_0 + xp_60_0 + xp_60_1 + xp_61_0 + xp_61_1
 + xp_62_0 + xp_63_0 + xp_63_1 + xp_64_0 + xp_65_0 + xp_65_1 + xp_66_0
 + xp_67_0 + xp_67_1 + xp_68_0 + xp_68_1 + xp_68_2 + xp_69_0 + xp_70_0
 + xp_71_0 + xp_72_0 + xp_73_0 + xp_74_0 + xp_74_1 + xp_75_0 + xp_76_0
 + xp_77_0 + xp_77_1 + xp_77_2 + xp_78_0 + xp_78_1 + xp_78_2 + xp_78_3
 + xp_79_0 + xp_79_1 + xp_79_2 + xp_80_0 + xp_80_1 + xp_81_0 + xp_81_1
 + xp_81_2 + xp_81_3 + xp_82_0 + xp_82_1 + xp_82_2 + xp_82_3 + xp_83_0
 + xp_83_1 + xp_84_0 + xp_85_0 + xp_85_1 + xp_85_2 + xp_85_3 + xp_86_0
 + xp_86_1 + xp_87_0 + xp_88_0 + xp_88_1 + xp_89_0 + xp_89_1 + xp_90_0
 + xp_90_1 + xp_90_2 + xp_91_0 + xp_91_1 + xp_91_2 + xp_92_0 + xp_92_1
 + xp_92_2 + xp_93_0 + xp_94_0 + xp_94_1 + xp_94_2 + xp_95_0 + xp_95_1
 + xp_95_2 + xp_96_0 + xp_96_1 + xp_97_0 + xp_98_0 + xp_98_1 + xp_98_2
 + xp_98_3 + xp_99_0 + xp_99_1 + xp_99_2 + xp_100_0 + xp_101_0
 + xp_101_1 + xp_102_0 + xp_103_0 + xp_104_0 + xp_104_1 + xp_105_0
 + xp_105_1 + xp_106_0 + xp_106_1 + xp_106_2 + xp_107_0 + xp_108_0
 + xp_108_1 + xp_108_2 + xp_109_0 + xp_109_1 + xp_110_0 + xp_111_0
 + xp_111_1 + xp_112_0 + xp_112_1 + xp_113_0 + xp_114_0 + xp_115_0
 + xp_115_1 + xp_116_0 + xp_116_1 + xp_117_0 + xp_118_0 + xp_119_0
 + xp_119_1 + xp_119_2 + xp_119_3 + xp_120_0 + xp_120_1 + xp_120_2
 + xp_121_0 + xp_122_0 + xp_123_0 + xp_124_0 + xp_124_1 + xp_125_0
 + xp_125_1 + xp_126_0 + xp_126_1 + xp_126_2 + xp_126_3 + xp_126_4
 + xp_127_0 + xp_127_1 + xp_128_0 + xp_128_1 + xp_128_2 + xp_129_0
 + xp_129_1 + xp_130_0 + xp_131_0 + xp_131_1 + xp_131_2

Subject To
 r_1: + xp_128_2 + xp_128_1 + xp_122_0 + xp_121_0 + xp_108_1 + xp_107_0
 + xp_78_3 + xp_67_1 + xp_57_1 + xp_40_2 + xp_40_1 + xp_25_0 + xp_22_1
 + xp_18_3 + xp_18_2 + xp_18_1 + xp_16_0 + xp_13_2 + xp_13_1 + xp_4_1
 + xp_4_0 <= 38394.8497854077
 r_2: + xp_131_2 + xp_131_1 + xp_127_1 + xp_126_1 + xp_120_2 + xp_120_0
 + xp_94_1 + xp_93_0 + xp_90_1 + xp_89_1 + xp_85_3 + xp_85_2 + xp_85_1
 + xp_85_0 + xp_77_2 + xp_77_1 + xp_75_0 + xp_74_1 + xp_71_0 + xp_66_0
 + xp_65_1 + xp_65_0 + xp_61_1 + xp_55_0 + xp_52_0 + xp_48_2 + xp_48_1
 + xp_48_0 + xp_42_2 + xp_42_1 + xp_38_1 + xp_32_1 + xp_32_0 + xp_28_1
 + xp_28_0 + xp_24_4 + xp_24_3 + xp_24_2 + xp_24_0 + xp_19_1 + xp_19_0
 + xp_12_1 + xp_1_1 <= 34493.9271255061
 r_3: + xp_126_4 + xp_124_1 + xp_114_0 + xp_106_2 + xp_105_1 + xp_98_3
 + xp_95_1 + xp_94_2 + xp_92_2 + xp_91_2 + xp_85_3 + xp_83_1 + xp_79_2
 + xp_76_0 + xp_68_2 + xp_48_2 + xp_41_1 + xp_34_0 + xp_30_2 + xp_26_4
 + xp_26_3 + xp_24_4 <= 36134.2717920953
 r_4: + xp_119_3 + xp_119_2 + xp_117_0 + xp_112_1 + xp_111_1 + xp_104_1
 + xp_95_2 + xp_95_0 + xp_91_1 + xp_91_0 + xp_88_1 + xp_84_0 + xp_82_3
 + xp_82_1 + xp_81_3 + xp_81_2 + xp_79_1 + xp_79_0 + xp_46_0 + xp_45_2
 + xp_44_1 + xp_43_0 + xp_40_2 + xp_40_1 + xp_40_0 + xp_34_1 + xp_27_1
 + xp_18_3 + xp_3_2 <= 35021.1946050096
 r_5: + xp_130_0 + xp_119_3 + xp_119_2 + xp_112_1 + xp_111_1 + xp_104_1
 + xp_99_0 + xp_88_1 + xp_82_3 + xp_82_1 + xp_81_3 + xp_81_2 + xp_45_2
 + xp_44_1 + xp_27_1 + xp_18_3 + xp_7_0 + xp_3_2 + xp_2_0
 <= 36134.2717920953
 r_6: + xp_126_4 + xp_126_2 + xp_119_0 + xp_114_0 + xp_95_1 + xp_92_2
 + xp_92_1 + xp_91_2 + xp_83_1 + xp_83_0 + xp_82_2 + xp_81_0 + xp_79_2
 + xp_70_0 + xp_68_2 + xp_68_1 + xp_58_1 + xp_53_0 + xp_48_2 + xp_48_1
 + xp_45_0 + xp_34_0 + xp_32_2 + xp_32_1 + xp_30_2 + xp_30_1 + xp_18_1
 + xp_5_1 <= 38066.6125101544
 r_7: + xp_119_1 + xp_104_0 + xp_88_0 + xp_82_0 + xp_81_1 + xp_78_2
 + xp_53_1 + xp_50_1 + xp_45_1 + xp_44_0 + xp_27_0 + xp_18_2 + xp_18_0
 + xp_4_1 + xp_3_1 <= 35021.1946050096
 r_8: + xp_131_2 + xp_131_1 + xp_127_1 + xp_126_1 + xp_120_2 + xp_120_0
 + xp_118_0 + xp_103_0 + xp_94_1 + xp_90_1 + xp_89_1 + xp_77_2 + xp_77_1
 + xp_74_1 + xp_71_0 + xp_61_1 + xp_55_0 + xp_42_2 + xp_42_1 + xp_38_1
 + xp_32_1 + xp_32_0 + xp_24_4 + xp_24_3 + xp_24_2 + xp_24_0 + xp_12_1
 + xp_1_1 <= 38394.8497854077
 r_9: + xp_131_0 + xp_127_0 + xp_122_0 + xp_120_1 + xp_108_1 + xp_78_3
 + xp_77_0 + xp_67_1 + xp_57_1 + xp_42_0 + xp_33_0 + xp_32_2 + xp_24_1
 <= 39327.3986152324
 r_10: + xp_112_1 + xp_111_1 + xp_106_0 + xp_99_0 + xp_98_0 + xp_88_1
 + xp_88_0 + xp_85_0 + xp_78_2 + xp_50_1 + xp_26_0 + xp_24_0 + xp_8_0
 + xp_7_0 + xp_4_1 + xp_3_2 + xp_3_1 + xp_2_0 <= 38066.6125101544
 r_11: + xp_119_0 + xp_112_0 + xp_111_0 + xp_95_1 + xp_91_2 + xp_82_2
 + xp_81_0 + xp_79_2 + xp_78_3 + xp_78_1 + xp_78_0 + xp_59_0 + xp_53_0
 + xp_50_0 + xp_49_0 + xp_45_0 + xp_34_0 + xp_18_1 + xp_4_0 + xp_3_0
 <= 35582.3665893272
 r_12: + xp_129_1 + xp_128_1 + xp_128_0 + xp_123_0 + xp_119_2 + xp_119_1
 + xp_117_0 + xp_112_1 + xp_111_1 + xp_108_2 + xp_101_0 + xp_95_0
 + xp_91_1 + xp_82_1 + xp_82_0 + xp_81_3 + xp_81_1 + xp_80_1 + xp_79_1
 + xp_78_2 + xp_78_0 + xp_73_0 + xp_63_1 + xp_60_1 + xp_50_1 + xp_46_0
 + xp_45_1 + xp_44_1 + xp_44_0 + xp_40_1 + xp_40_0 + xp_18_2 + xp_18_0
 + xp_17_1 + xp_15_0 + xp_14_0 + xp_13_1 + xp_13_0 + xp_9_0 + xp_4_1
 <= 35221.1657709797
 r_13: + xp_129_0 + xp_128_2 + xp_126_3 + xp_120_2 + xp_120_1 + xp_119_3
 + xp_109_1 + xp_101_1 + xp_100_0 + xp_96_1 + xp_95_2 + xp_91_0
 + xp_90_0 + xp_82_3 + xp_81_2 + xp_80_0 + xp_79_0 + xp_68_0 + xp_63_0
 + xp_60_0 + xp_53_1 + xp_45_2 + xp_40_2 + xp_34_1 + xp_31_0 + xp_30_0
 + xp_18_3 + xp_17_0 + xp_13_2 + xp_9_1 <= 35582.3665893272
 r_14: + xp_131_2 + xp_131_1 + xp_131_0 + xp_126_4 + xp_126_2 + xp_125_1
 + xp_125_0 + xp_124_1 + xp_124_0 + xp_115_1 + xp_115_0 + xp_106_2
 + xp_106_1 + xp_99_2 + xp_99_1 + xp_98_3 + xp_98_2 + xp_98_1 + xp_94_2
 + xp_94_1 + xp_94_0 + xp_92_2 + xp_92_1 + xp_86_1 + xp_86_0 + xp_85_3
 + xp_85_2 + xp_85_1 + xp_77_2 + xp_77_1 + xp_77_0 + xp_68_2 + xp_68_1
 + xp_65_1 + xp_65_0 + xp_58_1 + xp_56_0 + xp_51_0 + xp_48_2 + xp_48_1
 + xp_41_1 + xp_41_0 + xp_38_1 + xp_38_0 + xp_35_0 + xp_32_2 + xp_32_1
 + xp_30_2 + xp_30_1 + xp_26_4 + xp_26_3 + xp_26_2 + xp_26_1 + xp_24_4
 + xp_24_3 + xp_24_2 + xp_24_1 + xp_20_0 + xp_19_1 + xp_19_0 + xp_12_1
 + xp_12_0 + xp_5_1 + xp_2_1 + xp_0_1 + xp_0_0 <= 35021.1946050096
 r_15: + xp_131_2 + xp_131_0 + xp_126_4 + xp_126_3 + xp_126_2 + xp_125_0
 + xp_124_1 + xp_124_0 + xp_120_2 + xp_120_1 + xp_116_0 + xp_115_0
 + xp_109_1 + xp_99_2 + xp_98_3 + xp_98_1 + xp_96_1 + xp_94_2 + xp_94_0
 + xp_92_2 + xp_92_1 + xp_90_0 + xp_89_1 + xp_89_0 + xp_86_0 + xp_85_3
 + xp_85_1 + xp_77_2 + xp_77_0 + xp_68_2 + xp_68_1 + xp_68_0 + xp_65_0
 + xp_58_1 + xp_51_0 + xp_48_2 + xp_48_1 + xp_42_2 + xp_42_0 + xp_38_0
 + xp_36_0 + xp_32_2 + xp_32_1 + xp_28_0 + xp_26_3 + xp_26_1 + xp_24_3
 + xp_24_1 + xp_19_1 + xp_12_0 + xp_11_1 + xp_0_0 <= 35221.1657709797
 r_16: + xp_128_0 + xp_123_0 + xp_108_2 + xp_108_0 + xp_78_2 + xp_78_1
 + xp_78_0 + xp_73_0 + xp_67_0 + xp_57_0 + xp_46_0 + xp_44_1 + xp_44_0
 + xp_40_0 + xp_22_0 + xp_18_0 + xp_13_0 + xp_6_0 <= 39327.3986152324
 r_17: + xp_129_1 + xp_128_1 + xp_126_0 + xp_119_2 + xp_119_1 + xp_112_1
 + xp_111_1 + xp_109_0 + xp_97_0 + xp_95_0 + xp_91_1 + xp_90_2 + xp_81_3
 + xp_81_1 + xp_80_1 + xp_79_1 + xp_63_1 + xp_62_0 + xp_61_0 + xp_60_1
 + xp_47_0 + xp_45_1 + xp_40_1 + xp_22_1 + xp_18_2 + xp_17_1 + xp_13_1
 + xp_9_0 + xp_4_1 + xp_1_0 + xp_0_1 <= 34493.9271255061
 r_18: + xp_126_3 + xp_126_1 + xp_126_0 + xp_106_0 + xp_99_0 + xp_98_0
 + xp_92_0 + xp_85_0 + xp_68_0 + xp_58_0 + xp_48_0 + xp_32_0 + xp_30_0
 + xp_26_0 + xp_24_0 + xp_5_0 + xp_2_0 <= 35582.3665893272
 r_19: + xp_131_1 + xp_125_1 + xp_116_1 + xp_115_1 + xp_110_0 + xp_108_2
 + xp_106_2 + xp_106_1 + xp_99_1 + xp_98_2 + xp_94_1 + xp_86_1 + xp_85_2
 + xp_78_0 + xp_77_1 + xp_65_1 + xp_56_0 + xp_42_1 + xp_38_1 + xp_28_1
 + xp_26_4 + xp_26_2 + xp_24_4 + xp_24_2 + xp_19_0 + xp_14_0 + xp_12_1
 + xp_11_0 + xp_5_1 + xp_3_0 + xp_2_1 + xp_0_1 <= 35582.3665893272
 r_20: + xp_129_0 + xp_128_2 + xp_119_3 + xp_119_0 + xp_112_0 + xp_111_0
 + xp_108_1 + xp_108_0 + xp_107_0 + xp_101_1 + xp_95_2 + xp_95_1
 + xp_91_2 + xp_91_0 + xp_82_3 + xp_82_2 + xp_81_2 + xp_81_0 + xp_80_0
 + xp_79_2 + xp_79_0 + xp_78_3 + xp_78_1 + xp_69_0 + xp_64_0 + xp_63_0
 + xp_60_0 + xp_50_0 + xp_49_0 + xp_45_2 + xp_45_0 + xp_40_2 + xp_18_3
 + xp_18_1 + xp_17_0 + xp_14_1 + xp_13_2 + xp_10_0 + xp_9_1 + xp_4_0
 <= 34493.9271255061
 r_21: + xp_126_4 + xp_124_1 + xp_113_0 + xp_106_2 + xp_105_1 + xp_99_2
 + xp_99_1 + xp_98_3 + xp_94_2 + xp_92_2 + xp_86_1 + xp_86_0 + xp_85_3
 + xp_83_1 + xp_77_2 + xp_77_1 + xp_77_0 + xp_68_2 + xp_65_1 + xp_65_0
 + xp_48_2 + xp_41_1 + xp_38_1 + xp_38_0 + xp_30_2 + xp_26_4 + xp_26_3
 + xp_24_4 + xp_20_0 + xp_2_1 + xp_0_1 + xp_0_0 <= 35021.1946050096
 r_22: + xp_126_2 + xp_124_0 + xp_106_1 + xp_105_0 + xp_98_2 + xp_98_1
 + xp_94_1 + xp_94_0 + xp_92_1 + xp_85_2 + xp_85_1 + xp_83_0 + xp_68_1
 + xp_58_1 + xp_48_1 + xp_41_0 + xp_32_2 + xp_32_1 + xp_30_1 + xp_26_2
 + xp_26_1 + xp_24_3 + xp_24_2 + xp_24_1 + xp_5_1 <= 35021.1946050096
 r_23: + xp_128_2 + xp_128_1 + xp_128_0 + xp_119_3 + xp_119_2 + xp_119_1
 + xp_117_0 + xp_112_1 + xp_111_1 + xp_104_1 + xp_104_0 + xp_100_0
 + xp_95_2 + xp_95_0 + xp_91_1 + xp_91_0 + xp_84_0 + xp_82_3 + xp_82_1
 + xp_82_0 + xp_81_3 + xp_81_2 + xp_81_1 + xp_80_1 + xp_80_0 + xp_79_1
 + xp_79_0 + xp_78_2 + xp_73_0 + xp_60_1 + xp_60_0 + xp_53_1 + xp_50_1
 + xp_46_0 + xp_45_2 + xp_45_1 + xp_44_1 + xp_44_0 + xp_40_2 + xp_40_1
 + xp_40_0 + xp_34_1 + xp_21_0 + xp_18_3 + xp_18_2 + xp_18_0 + xp_15_0
 + xp_9_1 + xp_9_0 + xp_4_1 + xp_3_2 + xp_3_1 <= 35021.1946050096
 r_24: + xp_128_0 + xp_126_1 + xp_103_0 + xp_94_1 + xp_90_1 + xp_89_1
 + xp_74_1 + xp_61_1 + xp_40_0 + xp_39_0 + xp_38_1 + xp_22_0 + xp_18_0
 + xp_13_0 + xp_12_1 + xp_1_1 <= 39327.3986152324
 r_25: + xp_131_0 + xp_127_0 + xp_126_4 + xp_126_3 + xp_126_2 + xp_126_0
 + xp_120_1 + xp_94_2 + xp_94_0 + xp_90_2 + xp_90_0 + xp_89_0 + xp_77_0
 + xp_74_0 + xp_61_0 + xp_42_0 + xp_38_0 + xp_32_2 + xp_24_1 + xp_12_0
 + xp_1_0 <= 39327.3986152324
 r_26: + xp_128_2 + xp_128_1 + xp_121_0 + xp_112_1 + xp_112_0 + xp_108_1
 + xp_107_0 + xp_81_3 + xp_81_2 + xp_81_1 + xp_81_0 + xp_79_2 + xp_79_1
 + xp_79_0 + xp_78_3 + xp_67_1 + xp_64_0 + xp_60_1 + xp_60_0 + xp_57_1
 + xp_47_0 + xp_40_2 + xp_40_1 + xp_37_0 + xp_29_0 + xp_25_0 + xp_22_1
 + xp_18_3 + xp_18_2 + xp_18_1 + xp_17_1 + xp_17_0 + xp_13_2 + xp_13_1
 + xp_4_1 + xp_4_0 <= 34493.9271255061
 r_27: + xp_131_2 + xp_127_1 + xp_125_0 + xp_120_2 + xp_116_0 + xp_115_0
 + xp_108_0 + xp_101_1 + xp_99_2 + xp_98_3 + xp_98_1 + xp_96_1 + xp_92_2
 + xp_92_1 + xp_89_1 + xp_86_0 + xp_85_3 + xp_85_1 + xp_82_3 + xp_82_2
 + xp_78_1 + xp_77_2 + xp_74_1 + xp_72_0 + xp_67_0 + xp_65_0 + xp_58_1
 + xp_57_0 + xp_52_0 + xp_50_0 + xp_48_2 + xp_48_1 + xp_42_2 + xp_32_1
 + xp_28_0 + xp_26_3 + xp_26_1 + xp_24_3 + xp_23_0 + xp_19_1 + xp_14_1
 + xp_11_1 <= 34493.9271255061
 r_28: + xp_131_1 + xp_126_1 + xp_126_0 + xp_125_1 + xp_120_0 + xp_116_1
 + xp_115_1 + xp_109_0 + xp_99_1 + xp_99_0 + xp_98_2 + xp_98_0 + xp_96_0
 + xp_94_1 + xp_92_0 + xp_90_2 + xp_90_1 + xp_86_1 + xp_85_2 + xp_85_0
 + xp_77_1 + xp_75_0 + xp_65_1 + xp_58_0 + xp_54_0 + xp_48_0 + xp_42_1
 + xp_38_1 + xp_32_0 + xp_28_1 + xp_26_4 + xp_26_2 + xp_26_0 + xp_24_4
 + xp_24_2 + xp_24_0 + xp_19_0 + xp_12_1 + xp_11_0 + xp_0_1
 <= 34493.9271255061
 r_29: + xp_129_1 + xp_129_0 + xp_95_2 + xp_95_1 + xp_95_0 + xp_93_0
 + xp_87_0 + xp_71_0 + xp_62_0 + xp_49_0 + xp_45_2 + xp_45_1 + xp_45_0
 + xp_10_0 + xp_9_1 + xp_9_0 + xp_1_1 + xp_1_0 <= 34493.9271255061
 r_30: + xp_125_1 + xp_125_0 + xp_121_0 + xp_102_0 + xp_99_2 + xp_99_1
 + xp_99_0 + xp_96_1 + xp_96_0 + xp_92_2 + xp_92_1 + xp_92_0 + xp_57_1
 + xp_57_0 + xp_37_0 + xp_26_4 + xp_26_3 + xp_26_2 + xp_26_1 + xp_26_0
 + xp_23_0 + xp_11_1 + xp_11_0 <= 34493.9271255061

Bounds
 0 <= xp_0_0 <= 209.404292678326
 0 <= xp_0_1 <= 26.1755365847907
 0 <= xp_1_0 <= 81.0125545696875
 0 <= xp_1_1 <= 101.265693212109
 0 <= xp_2_0 <= 12.758746184486
 0 <= xp_2_1 <= 102.069969475888
 0 <= xp_3_0 <= 60.6716766984898
 0 <= xp_3_1 <= 80.8955689313197
 0 <= xp_3_2 <= 40.4477844656599
 0 <= xp_4_0 <= 700.100552811978
 0 <= xp_4_1 <= 87.5125691014973
 0 <= xp_5_0 <= 961.446468925598
 0 <= xp_5_1 <= 120.1808086157
 0 <= xp_6_0 <= 1789.02480954647
 0 <= xp_7_0 <= 637.250018598888
 0 <= xp_8_0 <= 1507.31608075445
 0 <= xp_9_0 <= 60.028255687467
 0 <= xp_9_1 <= 48.0226045499736
 0 <= xp_10_0 <= 54.749278756121
 0 <= xp_11_0 <= 23.0315475536566
 0 <= xp_11_1 <= 18.4252380429253
 0 <= xp_12_0 <= 1834.51028806434
 0 <= xp_12_1 <= 229.313786008042
 0 <= xp_13_0 <= 83.8567679025042
 0 <= xp_13_1 <= 83.8567679025042
 0 <= xp_13_2 <= 83.8567679025042
 0 <= xp_14_0 <= 73.1964516062402
 0 <= xp_14_1 <= 146.39290321248
 0 <= xp_15_0 <= 506.299219650955
 0 <= xp_16_0 <= 2636.71736836419
 0 <= xp_17_0 <= 164.76696003862
 0 <= xp_17_1 <= 131.813568030896
 0 <= xp_18_0 <= 119.478894785493
 0 <= xp_18_1 <= 159.305193047324
 0 <= xp_18_2 <= 39.826298261831
 0 <= xp_18_3 <= 39.826298261831
 0 <= xp_19_0 <= 587.194788582275
 0 <= xp_19_1 <= 469.75583086582
 0 <= xp_20_0 <= 128.055404398331
 0 <= xp_21_0 <= 274.075415888514
 0 <= xp_22_0 <= 410.071220491058
 0 <= xp_22_1 <= 820.142440982116
 0 <= xp_23_0 <= 51.9196886281003
 0 <= xp_24_0 <= 151.174691180763
 0 <= xp_24_1 <= 75.5873455903817
 0 <= xp_24_2 <= 37.7936727951909
 0 <= xp_24_3 <= 37.7936727951909
 0 <= xp_24_4 <= 37.7936727951909
 0 <= xp_25_0 <= 577.960234753618
 0 <= xp_26_0 <= 6.81441343492317
 0 <= xp_26_1 <= 3.40720671746159
 0 <= xp_26_2 <= 1.70360335873079
 0 <= xp_26_3 <= 1.70360335873079
 0 <= xp_26_4 <= 1.70360335873079
 0 <= xp_27_0 <= 224.963382581241
 0 <= xp_27_1 <= 112.48169129062
 0 <= xp_28_0 <= 370.332661458003
 0 <= xp_28_1 <= 296.266129166402
 0 <= xp_29_0 <= 2444.6342617667
 0 <= xp_30_0 <= 61.0445684207871
 0 <= xp_30_1 <= 81.3927578943828
 0 <= xp_30_2 <= 40.6963789471914
 0 <= xp_31_0 <= 190.372191636368
 0 <= xp_32_0 <= 1748.70863392397
 0 <= xp_32_1 <= 249.815519131996
 0 <= xp_32_2 <= 249.815519131996
 0 <= xp_33_0 <= 8049.65747884616
 0 <= xp_34_0 <= 56.6941649939853
 0 <= xp_34_1 <= 453.553319951882
 0 <= xp_35_0 <= 260.717118307393
 0 <= xp_36_0 <= 318.559204877862
 0 <= xp_37_0 <= 364.42488672043
 0 <= xp_38_0 <= 297.260507092528
 0 <= xp_38_1 <= 37.1575633865661
 0 <= xp_39_0 <= 1571.54119621837
 0 <= xp_40_0 <= 282.717729922934
 0 <= xp_40_1 <= 282.717729922934
 0 <= xp_40_2 <= 282.717729922934
 0 <= xp_41_0 <= 62.0828159613011
 0 <= xp_41_1 <= 17.7379474175146
 0 <= xp_42_0 <= 201.624747726868
 0 <= xp_42_1 <= 151.218560795151
 0 <= xp_42_2 <= 100.812373863434
 0 <= xp_43_0 <= 491.493224795033
 0 <= xp_44_0 <= 356.272450046675
 0 <= xp_44_1 <= 101.792128584764
 0 <= xp_45_0 <= 28.3397708945947
 0 <= xp_45_1 <= 9.44659029819822
 0 <= xp_45_2 <= 4.72329514909911
 0 <= xp_46_0 <= 1603.7195583719
 0 <= xp_47_0 <= 877.962592745391
 0 <= xp_48_0 <= 2258.06410337728
 0 <= xp_48_1 <= 322.580586196755
 0 <= xp_48_2 <= 322.580586196755
 0 <= xp_49_0 <= 87.9805116549684
 0 <= xp_50_0 <= 522.311628902545
 0 <= xp_50_1 <= 261.155814451272
 0 <= xp_51_0 <= 708.779424858388
 0 <= xp_52_0 <= 661.663459005764
 0 <= xp_53_0 <= 126.476098280366
 0 <= xp_53_1 <= 63.238049140183
 0 <= xp_54_0 <= 3689.45650483105
 0 <= xp_55_0 <= 1183.88734867953
 0 <= xp_56_0 <= 95.6796289800479
 0 <= xp_57_0 <= 114.353461504505
 0 <= xp_57_1 <= 91.4827692036038
 0 <= xp_58_0 <= 4036.94040879534
 0 <= xp_58_1 <= 504.617551099418
 0 <= xp_59_0 <= 10632.7442436211
 0 <= xp_60_0 <= 451.41833205167
 0 <= xp_60_1 <= 225.709166025835
 0 <= xp_61_0 <= 1611.63802376892
 0 <= xp_61_1 <= 805.819011884461
 0 <= xp_62_0 <= 131.082407791097
 0 <= xp_63_0 <= 87.7830983902227
 0 <= xp_63_1 <= 43.8915491951114
 0 <= xp_64_0 <= 993.31774377842
 0 <= xp_65_0 <= 405.867049112216
 0 <= xp_65_1 <= 115.962014032062
 0 <= xp_66_0 <= 1678.21016360259
 0 <= xp_67_0 <= 224.539309642157
 0 <= xp_67_1 <= 179.631447713726
 0 <= xp_68_0 <= 327.06259846672
 0 <= xp_68_1 <= 654.125196933441
 0 <= xp_68_2 <= 490.593897700081
 0 <= xp_69_0 <= 1716.77155464957
 0 <= xp_70_0 <= 630.99859854861
 0 <= xp_71_0 <= 70.8055576220987
 0 <= xp_72_0 <= 598.425409865582
 0 <= xp_73_0 <= 922.051555205248
 0 <= xp_74_0 <= 846.449586410071
 0 <= xp_74_1 <= 105.806198301259
 0 <= xp_75_0 <= 1762.17660554106
 0 <= xp_76_0 <= 1720.32499341499
 0 <= xp_77_0 <= 317.542892144542
 0 <= xp_77_1 <= 63.5085784289085
 0 <= xp_77_2 <= 190.525735286725
 0 <= xp_78_0 <= 3107.20435946981
 0 <= xp_78_1 <= 3107.20435946981
 0 <= xp_78_2 <= 15536.0217973491
 0 <= xp_78_3 <= 6214.40871893963
 0 <= xp_79_0 <= 591.435517973107
 0 <= xp_79_1 <= 354.861310783864
 0 <= xp_79_2 <= 118.287103594621
 0 <= xp_80_0 <= 150.209559664229
 0 <= xp_80_1 <= 75.1047798321146
 0 <= xp_81_0 <= 115.874274803286
 0 <= xp_81_1 <= 57.9371374016429
 0 <= xp_81_2 <= 57.9371374016429
 0 <= xp_81_3 <= 28.9685687008215
 0 <= xp_82_0 <= 122.03064402239
 0 <= xp_82_1 <= 48.8122576089561
 0 <= xp_82_2 <= 24.4061288044781
 0 <= xp_82_3 <= 24.4061288044781
 0 <= xp_83_0 <= 391.638670845735
 0 <= xp_83_1 <= 111.896763098781
 0 <= xp_84_0 <= 889.478366522219
 0 <= xp_85_0 <= 90.7662321686011
 0 <= xp_85_1 <= 181.532464337202
 0 <= xp_85_2 <= 45.3831160843006
 0 <= xp_85_3 <= 90.7662321686011
 0 <= xp_86_0 <= 133.275888510493
 0 <= xp_86_1 <= 38.0788252887123
 0 <= xp_87_0 <= 141.216288714706
 0 <= xp_88_0 <= 236.128199442966
 0 <= xp_88_1 <= 188.902559554372
 0 <= xp_89_0 <= 1973.19676234934
 0 <= xp_89_1 <= 246.649595293668
 0 <= xp_90_0 <= 12052.1894867566
 0 <= xp_90_1 <= 7231.31369205395
 0 <= xp_90_2 <= 2410.43789735132
 0 <= xp_91_0 <= 604.508663060706
 0 <= xp_91_1 <= 1511.27165765177
 0 <= xp_91_2 <= 604.508663060706
 0 <= xp_92_0 <= 52.0001162544781
 0 <= xp_92_1 <= 7.42858803635402
 0 <= xp_92_2 <= 7.42858803635402
 0 <= xp_93_0 <= 130.424363575279
 0 <= xp_94_0 <= 158.018351025279
 0 <= xp_94_1 <= 52.6727836750929
 0 <= xp_94_2 <= 26.3363918375464
 0 <= xp_95_0 <= 27.2576537396927
 0 <= xp_95_1 <= 13.6288268698463
 0 <= xp_95_2 <= 20.4432403047695
 0 <= xp_96_0 <= 89.771854242475
 0 <= xp_96_1 <= 25.6491012121357
 0 <= xp_97_0 <= 527.488243400319
 0 <= xp_98_0 <= 31.7908472264442
 0 <= xp_98_1 <= 63.5816944528883
 0 <= xp_98_2 <= 31.7908472264442
 0 <= xp_98_3 <= 15.8954236132221
 0 <= xp_99_0 <= 1.82058899709857
 0 <= xp_99_1 <= 5.46176699129572
 0 <= xp_99_2 <= 9.10294498549287
 0 <= xp_100_0 <= 503.338020679771
 0 <= xp_101_0 <= 222.272712898782
 0 <= xp_101_1 <= 27.7840891123477
 0 <= xp_102_0 <= 75.0170406033388
 0 <= xp_103_0 <= 1440.85361495676
 0 <= xp_104_0 <= 73.335372051802
 0 <= xp_104_1 <= 58.6682976414416
 0 <= xp_105_0 <= 967.324997253579
 0 <= xp_105_1 <= 483.66249862679
 0 <= xp_106_0 <= 13.818928532194
 0 <= xp_106_1 <= 18.4252380429253
 0 <= xp_106_2 <= 9.21261902146266
 0 <= xp_107_0 <= 450.102243620033
 0 <= xp_108_0 <= 283.244165295589
 0 <= xp_108_1 <= 472.073608825981
 0 <= xp_108_2 <= 94.4147217651963
 0 <= xp_109_0 <= 537.475892275968
 0 <= xp_109_1 <= 429.980713820775
 0 <= xp_110_0 <= 133.319758124881
 0 <= xp_111_0 <= 2601.99456857616
 0 <= xp_111_1 <= 325.24932107202
 0 <= xp_112_0 <= 4164.51324743541
 0 <= xp_112_1 <= 520.564155929426
 0 <= xp_113_0 <= 425.754607634739
 0 <= xp_114_0 <= 2399.75564624786
 0 <= xp_115_0 <= 147.401904343403
 0 <= xp_115_1 <= 73.7009521717013
 0 <= xp_116_0 <= 106.559293348251
 0 <= xp_116_1 <= 53.2796466741257
 0 <= xp_117_0 <= 1944.84967985235
 0 <= xp_118_0 <= 3157.29614749842
 0 <= xp_119_0 <= 27.9303211603074
 0 <= xp_119_1 <= 13.9651605801537
 0 <= xp_119_2 <= 6.98258029007686
 0 <= xp_119_3 <= 13.9651605801537
 0 <= xp_120_0 <= 1447.6095355725
 0 <= xp_120_1 <= 482.5365118575
 0 <= xp_120_2 <= 241.26825592875
 0 <= xp_121_0 <= 75.6092803975757
 0 <= xp_122_0 <= 2276.63557346817
 0 <= xp_123_0 <= 514.261554662362
 0 <= xp_124_0 <= 122.483963371065
 0 <= xp_124_1 <= 15.3104954213832
 0 <= xp_125_0 <= 18.2058899709857
 0 <= xp_125_1 <= 9.10294498549287
 0 <= xp_126_0 <= 2822.21272120111
 0 <= xp_126_1 <= 8466.63816360332
 0 <= xp_126_2 <= 8466.63816360332
 0 <= xp_126_3 <= 2822.21272120111
 0 <= xp_126_4 <= 2822.21272120111
 0 <= xp_127_0 <= 192.4340635126
 0 <= xp_127_1 <= 384.8681270252
 0 <= xp_128_0 <= 90.327536024722
 0 <= xp_128_1 <= 135.491304037083
 0 <= xp_128_2 <= 180.655072049444
 0 <= xp_129_0 <= 27.2357189324987
 0 <= xp_129_1 <= 21.788575145999
 0 <= xp_130_0 <= 403.973344091138
 0 <= xp_131_0 <= 256.132743603856
 0 <= xp_131_1 <= 426.887906006426
 0 <= xp_131_2 <= 85.3775812012853

End
